19,3	0,0	10,1	15,2	0,0	0,0	0,0	0,0	0,0	15,2
9,1	13,9	0,0	5,2	8,6	0,0	0,0	10,0	0,0	0,0
0,0	0,0	12,5	0,0	8,2	19,5	0,0	0,0	16,2	0,0
9,8	0,0	9,0	0,0	0,0	0,0	12,1	0,0	0,0	0,0
0,0	6,6	0,0	7,4	16,6	0,0	0,0	8,8	0,0	0,0
0,0	14,2	9,2	0,0	8,0	18,9	0,0	0,0	17,2	0,0
0,0	18,0	0,0	5,3	0,0	0,0	9,6	0,0	0,0	9,7
7,5	0,0	11,4	0,0	0,0	0,0	0,0	0,0	0,0	10,0
0,0	16,7	0,0	12,7	18,4	0,0	0,0	10,8	0,0	0,0
0,0	0,0	19,1	0,0	0,0	14,7	19,6	0,0	0,0	13,1
									
4,9	3,3	3,2	3,5	3,9	2,8	4,7	4,7	2,9	3,9
